(set-option :auto_config false)
(set-option :smt.mbqi false)
(set-option :smt.case_split 3)
(set-option :smt.qi.eager_threshold 100.0)
(set-option :smt.delay_units true)
(set-option :smt.arith.solver 2)
(set-option :smt.arith.nl false)
(set-info :comment ";; Prelude")
(set-info :comment ";; AIR prelude")
(declare-sort %%Function%% 0)
(declare-sort FuelId 0)
(declare-sort Fuel 0)
(declare-const zero Fuel)
(declare-fun succ (Fuel) Fuel)
(declare-fun fuel_bool (FuelId) Bool)
(declare-fun fuel_bool_default (FuelId) Bool)
(declare-const fuel_defaults Bool)
(assert (=> fuel_defaults (forall ((id FuelId)) (! (= (fuel_bool id) (fuel_bool_default id)) :pattern ((fuel_bool id)) :qid prelude_fuel_defaults :skolemid skolem_prelude_fuel_defaults))))
(declare-sort Char 0)
(declare-fun char%from_unicode (Int) Char)
(declare-fun char%to_unicode (Char) Int)
(declare-sort StrSlice 0)
(declare-fun str%strslice_is_ascii (StrSlice) Bool)
(declare-fun str%strslice_len (StrSlice) Int)
(declare-fun str%strslice_get_char (StrSlice Int) Char)
(declare-fun str%new_strlit (Int) StrSlice)
(declare-fun str%from_strlit (StrSlice) Int)
(declare-sort Poly 0)
(declare-sort Height 0)
(declare-fun I (Int) Poly)
(declare-fun B (Bool) Poly)
(declare-fun %I (Poly) Int)
(declare-fun %B (Poly) Bool)
(declare-fun S (StrSlice) Poly)
(declare-fun %S (Poly) StrSlice)
(declare-fun C (Char) Poly)
(declare-fun %C (Poly) Char)
(declare-sort Type 0)
(declare-const BOOL Type)
(declare-const INT Type)
(declare-const NAT Type)
(declare-const STRSLICE Type)
(declare-const CHAR Type)
(declare-fun UINT (Int) Type)
(declare-fun SINT (Int) Type)
(declare-fun CONST_INT (Int) Type)
(declare-sort Dcr 0)
(declare-const $ Dcr)
(declare-fun REF (Dcr) Dcr)
(declare-fun MUT_REF (Dcr) Dcr)
(declare-fun BOX (Dcr) Dcr)
(declare-fun RC (Dcr) Dcr)
(declare-fun ARC (Dcr) Dcr)
(declare-fun GHOST (Dcr) Dcr)
(declare-fun TRACKED (Dcr) Dcr)
(declare-fun NEVER (Dcr) Dcr)
(declare-fun ARRAY (Dcr Type Dcr Type) Type)
(declare-fun SLICE (Dcr Type) Type)
(declare-fun has_type (Poly Type) Bool)
(declare-fun as_type (Poly Type) Poly)
(declare-fun mk_fun (%%Function%%) %%Function%%)
(declare-fun const_int (Type) Int)
(assert (forall ((i Int)) (! (= i (const_int (CONST_INT i))) :pattern ((CONST_INT i)) :qid prelude_type_id_const_int :skolemid skolem_prelude_type_id_const_int)))
(assert (forall ((b Bool)) (! (has_type (B b) BOOL) :pattern ((has_type (B b) BOOL)) :qid prelude_has_type_bool :skolemid skolem_prelude_has_type_bool)))
(assert (forall ((x Poly) (t Type)) (! (and (has_type (as_type x t) t) (=> (has_type x t) (= x (as_type x t)))) :pattern ((as_type x t)) :qid prelude_as_type :skolemid skolem_prelude_as_type)))
(assert (forall ((x %%Function%%)) (! (= (mk_fun x) x) :pattern ((mk_fun x)) :qid prelude_mk_fun :skolemid skolem_prelude_mk_fun)))
(assert (forall ((x Bool)) (! (= x (%B (B x))) :pattern ((B x)) :qid prelude_unbox_box_bool :skolemid skolem_prelude_unbox_box_bool)))
(assert (forall ((x Int)) (! (= x (%I (I x))) :pattern ((I x)) :qid prelude_unbox_box_int :skolemid skolem_prelude_unbox_box_int)))
(assert (forall ((x Poly)) (! (=> (has_type x BOOL) (= x (B (%B x)))) :pattern ((has_type x BOOL)) :qid prelude_box_unbox_bool :skolemid skolem_prelude_box_unbox_bool)))
(assert (forall ((x Poly)) (! (=> (has_type x INT) (= x (I (%I x)))) :pattern ((has_type x INT)) :qid prelude_box_unbox_int :skolemid skolem_prelude_box_unbox_int)))
(assert (forall ((x Poly)) (! (=> (has_type x NAT) (= x (I (%I x)))) :pattern ((has_type x NAT)) :qid prelude_box_unbox_nat :skolemid skolem_prelude_box_unbox_nat)))
(assert (forall ((bits Int) (x Poly)) (! (=> (has_type x (UINT bits)) (= x (I (%I x)))) :pattern ((has_type x (UINT bits))) :qid prelude_box_unbox_uint :skolemid skolem_prelude_box_unbox_uint)))
(assert (forall ((bits Int) (x Poly)) (! (=> (has_type x (SINT bits)) (= x (I (%I x)))) :pattern ((has_type x (SINT bits))) :qid prelude_box_unbox_sint :skolemid skolem_prelude_box_unbox_sint)))
(assert (forall ((x Int)) (! (= (str%from_strlit (str%new_strlit x)) x) :pattern ((str%new_strlit x)) :qid prelude_strlit_injective :skolemid skolem_prelude_strlit_injective)))
(assert (forall ((x Poly)) (! (=> (has_type x STRSLICE) (= x (S (%S x)))) :pattern ((has_type x STRSLICE)) :qid prelude_box_unbox_strslice :skolemid skolem_prelude_box_unbox_strslice)))
(assert (forall ((x StrSlice)) (! (= x (%S (S x))) :pattern ((S x)) :qid prelude_unbox_box_strslice :skolemid skolem_prelude_unbox_box_strslice)))
(assert (forall ((x StrSlice)) (! (has_type (S x) STRSLICE) :pattern ((has_type (S x) STRSLICE)) :qid prelude_has_type_strslice :skolemid skolem_prelude_has_type_strslice)))
(declare-fun ext_eq (Bool Type Poly Poly) Bool)
(assert (forall ((deep Bool) (t Type) (x Poly) (y Poly)) (! (= (= x y) (ext_eq deep t x y)) :pattern ((ext_eq deep t x y)) :qid prelude_ext_eq :skolemid skolem_prelude_ext_eq)))
(declare-const SZ Int)
(assert (or (= SZ 32) (= SZ 64)))
(declare-fun uHi (Int) Int)
(declare-fun iLo (Int) Int)
(declare-fun iHi (Int) Int)
(assert (= (uHi 8) 256))
(assert (= (uHi 16) 65536))
(assert (= (uHi 32) 4294967296))
(assert (= (uHi 64) 18446744073709551616))
(assert (= (uHi 128) (+ 1 340282366920938463463374607431768211455)))
(assert (= (iLo 8) (- 128)))
(assert (= (iLo 16) (- 32768)))
(assert (= (iLo 32) (- 2147483648)))
(assert (= (iLo 64) (- 9223372036854775808)))
(assert (= (iLo 128) (- 170141183460469231731687303715884105728)))
(assert (= (iHi 8) 128))
(assert (= (iHi 16) 32768))
(assert (= (iHi 32) 2147483648))
(assert (= (iHi 64) 9223372036854775808))
(assert (= (iHi 128) 170141183460469231731687303715884105728))
(declare-fun nClip (Int) Int)
(declare-fun uClip (Int Int) Int)
(declare-fun iClip (Int Int) Int)
(assert (forall ((i Int)) (! (and (<= 0 (nClip i)) (=> (<= 0 i) (= i (nClip i)))) :pattern ((nClip i)) :qid prelude_nat_clip :skolemid skolem_prelude_nat_clip)))
(assert (forall ((bits Int) (i Int)) (! (and (<= 0 (uClip bits i)) (< (uClip bits i) (uHi bits)) (=> (and (<= 0 i) (< i (uHi bits))) (= i (uClip bits i)))) :pattern ((uClip bits i)) :qid prelude_u_clip :skolemid skolem_prelude_u_clip)))
(assert (forall ((bits Int) (i Int)) (! (and (<= (iLo bits) (iClip bits i)) (< (iClip bits i) (iHi bits)) (=> (and (<= (iLo bits) i) (< i (iHi bits))) (= i (iClip bits i)))) :pattern ((iClip bits i)) :qid prelude_i_clip :skolemid skolem_prelude_i_clip)))
(declare-fun uInv (Int Int) Bool)
(declare-fun iInv (Int Int) Bool)
(assert (forall ((bits Int) (i Int)) (! (= (uInv bits i) (and (<= 0 i) (< i (uHi bits)))) :pattern ((uInv bits i)) :qid prelude_u_inv :skolemid skolem_prelude_u_inv)))
(assert (forall ((bits Int) (i Int)) (! (= (iInv bits i) (and (<= (iLo bits) i) (< i (iHi bits)))) :pattern ((iInv bits i)) :qid prelude_i_inv :skolemid skolem_prelude_i_inv)))
(assert (forall ((x Int)) (! (has_type (I x) INT) :pattern ((has_type (I x) INT)) :qid prelude_has_type_int :skolemid skolem_prelude_has_type_int)))
(assert (forall ((x Int)) (! (=> (<= 0 x) (has_type (I x) NAT)) :pattern ((has_type (I x) NAT)) :qid prelude_has_type_nat :skolemid skolem_prelude_has_type_nat)))
(assert (forall ((bits Int) (x Int)) (! (=> (uInv bits x) (has_type (I x) (UINT bits))) :pattern ((has_type (I x) (UINT bits))) :qid prelude_has_type_uint :skolemid skolem_prelude_has_type_uint)))
(assert (forall ((bits Int) (x Int)) (! (=> (iInv bits x) (has_type (I x) (SINT bits))) :pattern ((has_type (I x) (SINT bits))) :qid prelude_has_type_sint :skolemid skolem_prelude_has_type_sint)))
(assert (forall ((x Poly)) (! (=> (has_type x NAT) (<= 0 (%I x))) :pattern ((has_type x NAT)) :qid prelude_unbox_int :skolemid skolem_prelude_unbox_int)))
(assert (forall ((bits Int) (x Poly)) (! (=> (has_type x (UINT bits)) (uInv bits (%I x))) :pattern ((has_type x (UINT bits))) :qid prelude_unbox_uint :skolemid skolem_prelude_unbox_uint)))
(assert (forall ((bits Int) (x Poly)) (! (=> (has_type x (SINT bits)) (iInv bits (%I x))) :pattern ((has_type x (SINT bits))) :qid prelude_unbox_sint :skolemid skolem_prelude_unbox_sint)))
(declare-fun Add (Int Int) Int)
(declare-fun Sub (Int Int) Int)
(declare-fun Mul (Int Int) Int)
(declare-fun EucDiv (Int Int) Int)
(declare-fun EucMod (Int Int) Int)
(assert (forall ((x Int) (y Int)) (! (= (Add x y) (+ x y)) :pattern ((Add x y)) :qid prelude_add :skolemid skolem_prelude_add)))
(assert (forall ((x Int) (y Int)) (! (= (Sub x y) (- x y)) :pattern ((Sub x y)) :qid prelude_sub :skolemid skolem_prelude_sub)))
(assert (forall ((x Int) (y Int)) (! (= (Mul x y) (* x y)) :pattern ((Mul x y)) :qid prelude_mul :skolemid skolem_prelude_mul)))
(assert (forall ((x Int) (y Int)) (! (= (EucDiv x y) (div x y)) :pattern ((EucDiv x y)) :qid prelude_eucdiv :skolemid skolem_prelude_eucdiv)))
(assert (forall ((x Int) (y Int)) (! (= (EucMod x y) (mod x y)) :pattern ((EucMod x y)) :qid prelude_eucmod :skolemid skolem_prelude_eucmod)))
(assert (forall ((x Int) (y Int)) (! (=> (and (<= 0 x) (<= 0 y)) (<= 0 (Mul x y))) :pattern ((Mul x y)) :qid prelude_mul_nats :skolemid skolem_prelude_mul_nats)))
(assert (forall ((x Int) (y Int)) (! (=> (and (<= 0 x) (< 0 y)) (and (<= 0 (EucDiv x y)) (<= (EucDiv x y) x))) :pattern ((EucDiv x y)) :qid prelude_div_unsigned_in_bounds :skolemid skolem_prelude_div_unsigned_in_bounds)))
(assert (forall ((x Int) (y Int)) (! (=> (and (<= 0 x) (< 0 y)) (and (<= 0 (EucMod x y)) (< (EucMod x y) y))) :pattern ((EucMod x y)) :qid prelude_mod_unsigned_in_bounds :skolemid skolem_prelude_mod_unsigned_in_bounds)))
(assert (forall ((x Poly)) (! (=> (has_type x CHAR) (= x (C (%C x)))) :pattern ((has_type x CHAR)) :qid prelude_box_unbox_char :skolemid skolem_prelude_box_unbox_char)))
(assert (forall ((x Char)) (! (= x (%C (C x))) :pattern ((C x)) :qid prelude_unbox_box_char :skolemid skolem_prelude_unbox_box_char)))
(assert (forall ((x Char)) (! (has_type (C x) CHAR) :pattern ((has_type (C x) CHAR)) :qid prelude_has_type_char :skolemid skolem_prelude_has_type_char)))
(assert (forall ((x Int)) (! (=> (and (<= 0 x) (< x (uHi 32))) (= x (char%to_unicode (char%from_unicode x)))) :pattern ((char%from_unicode x)) :qid prelude_char_injective :skolemid skolem_prelude_char_injective)))
(assert (forall ((c Char)) (! (and (<= 0 (char%to_unicode c)) (< (char%to_unicode c) (uHi 32))) :pattern ((char%to_unicode c)) :qid prelude_to_unicode_bounds :skolemid skolem_prelude_to_unicode_bounds)))
(declare-fun height (Poly) Height)
(declare-fun height_lt (Height Height) Bool)
(assert (forall ((x Height) (y Height)) (! (= (height_lt x y) (and ((_ partial-order 0) x y) (not (= x y)))) :pattern ((height_lt x y)) :qid prelude_height_lt :skolemid skolem_prelude_height_lt)))
(declare-fun fun_from_recursive_field (Poly) Poly)
(declare-fun check_decrease_int (Int Int Bool) Bool)
(assert (forall ((cur Int) (prev Int) (otherwise Bool)) (! (= (check_decrease_int cur prev otherwise) (or (and (<= 0 cur) (< cur prev)) (and (= cur prev) otherwise))) :pattern ((check_decrease_int cur prev otherwise)) :qid prelude_check_decrease_int :skolemid skolem_prelude_check_decrease_int)))
(declare-fun check_decrease_height (Poly Poly Bool) Bool)
(assert (forall ((cur Poly) (prev Poly) (otherwise Bool)) (! (= (check_decrease_height cur prev otherwise) (or (height_lt (height cur) (height prev)) (and (= (height cur) (height prev)) otherwise))) :pattern ((check_decrease_height cur prev otherwise)) :qid prelude_check_decrease_height :skolemid skolem_prelude_check_decrease_height)))
(declare-fun uintxor (Int Poly Poly) Int)
(declare-fun uintand (Int Poly Poly) Int)
(declare-fun uintor (Int Poly Poly) Int)
(declare-fun uintshr (Int Poly Poly) Int)
(declare-fun uintshl (Int Poly Poly) Int)
(declare-fun uintnot (Int Poly) Int)
(declare-fun singular_mod (Int Int) Int)
(assert (forall ((x Int) (y Int)) (! (=> (not (= y 0)) (= (EucMod x y) (singular_mod x y))) :pattern ((singular_mod x y)) :qid prelude_singularmod :skolemid skolem_prelude_singularmod)))
(declare-fun closure_req (Type Dcr Type Poly Poly) Bool)
(declare-fun closure_ens (Type Dcr Type Poly Poly Poly) Bool)
(set-info :comment ";; MODULE 'root module'")
(set-info :comment ";; Fuel")
(assert true)
(set-info :comment ";; Datatypes")
(declare-datatypes ((tuple%0. 0)) (((tuple%0./tuple%0 ))))
(declare-const TYPE%tuple%0. Type)
(declare-fun Poly%tuple%0. (tuple%0.) Poly)
(declare-fun %Poly%tuple%0. (Poly) tuple%0.)
(assert (forall ((x@ tuple%0.)) (! (= x@ (%Poly%tuple%0. (Poly%tuple%0. x@))) :pattern ((Poly%tuple%0. x@)) :qid internal_crate__tuple__0_box_axiom_definition :skolemid skolem_internal_crate__tuple__0_box_axiom_definition)))
(assert (forall ((x@ Poly)) (! (=> (has_type x@ TYPE%tuple%0.) (= x@ (Poly%tuple%0. (%Poly%tuple%0. x@)))) :pattern ((has_type x@ TYPE%tuple%0.)) :qid internal_crate__tuple__0_unbox_axiom_definition :skolemid skolem_internal_crate__tuple__0_unbox_axiom_definition)))
(assert (forall ((x@ tuple%0.)) (! (has_type (Poly%tuple%0. x@) TYPE%tuple%0.) :pattern ((has_type (Poly%tuple%0. x@) TYPE%tuple%0.)) :qid internal_crate__tuple__0_has_type_always_definition :skolemid skolem_internal_crate__tuple__0_has_type_always_definition)))
(set-info :comment ";; Function-Specs main::nl_basics::lemma_mul_is_associative")
(declare-fun ens%main!nl_basics.lemma_mul_is_associative. (Int Int Int) Bool)
(assert (forall ((x~2@ Int) (y~4@ Int) (z~6@ Int)) (! (= (ens%main!nl_basics.lemma_mul_is_associative. x~2@ y~4@ z~6@) (= (Mul x~2@ (Mul y~4@ z~6@)) (Mul (Mul x~2@ y~4@) z~6@))) :pattern ((ens%main!nl_basics.lemma_mul_is_associative. x~2@ y~4@ z~6@)) :qid internal_ens__main!nl_basics.lemma_mul_is_associative._definition :skolemid skolem_internal_ens__main!nl_basics.lemma_mul_is_associative._definition)))
(set-info :comment ";; Function-Specs main::nl_basics::lemma_mul_is_commutative")
(declare-fun ens%main!nl_basics.lemma_mul_is_commutative. (Int Int) Bool)
(assert (forall ((x~2@ Int) (y~4@ Int)) (! (= (ens%main!nl_basics.lemma_mul_is_commutative. x~2@ y~4@) (= (Mul x~2@ y~4@) (Mul y~4@ x~2@))) :pattern ((ens%main!nl_basics.lemma_mul_is_commutative. x~2@ y~4@)) :qid internal_ens__main!nl_basics.lemma_mul_is_commutative._definition :skolemid skolem_internal_ens__main!nl_basics.lemma_mul_is_commutative._definition)))
(set-info :comment ";; Function-Specs main::nl_basics::lemma_mul_is_distributive")
(declare-fun ens%main!nl_basics.lemma_mul_is_distributive. (Int Int Int) Bool)
(assert (forall ((x~2@ Int) (y~4@ Int) (z~6@ Int)) (! (= (ens%main!nl_basics.lemma_mul_is_distributive. x~2@ y~4@ z~6@) (and (= (Mul x~2@ (Add y~4@ z~6@)) (Add (Mul x~2@ y~4@) (Mul x~2@ z~6@))) (= (Mul (Add x~2@ y~4@) z~6@) (Add (Mul x~2@ z~6@) (Mul y~4@ z~6@))) (= (Mul x~2@ (Sub y~4@ z~6@)) (Sub (Mul x~2@ y~4@) (Mul x~2@ z~6@))) (= (Mul (Sub x~2@ y~4@) z~6@) (Sub (Mul x~2@ z~6@) (Mul y~4@ z~6@))))) :pattern ((ens%main!nl_basics.lemma_mul_is_distributive. x~2@ y~4@ z~6@)) :qid internal_ens__main!nl_basics.lemma_mul_is_distributive._definition :skolemid skolem_internal_ens__main!nl_basics.lemma_mul_is_distributive._definition)))
(set-info :comment ";; Function-Def main::free_0")
(set-info :comment ";; ./nlqi_verus//src/main.rs:7:1: 36:40 (#0)")
(push 1)
(declare-const a0~2@ Int)
(declare-const b0~4@ Int)
(declare-const c0~6@ Int)
(declare-const d0~8@ Int)
(declare-const a1~10@ Int)
(declare-const b1~12@ Int)
(declare-const c1~14@ Int)
(declare-const d1~16@ Int)
(declare-const a2~18@ Int)
(declare-const b2~20@ Int)
(declare-const c2~22@ Int)
(declare-const d2~24@ Int)
(declare-const a3~26@ Int)
(declare-const b3~28@ Int)
(declare-const c3~30@ Int)
(declare-const d3~32@ Int)
(declare-const a4~34@ Int)
(declare-const b4~36@ Int)
(declare-const c4~38@ Int)
(declare-const d4~40@ Int)
(declare-const a5~42@ Int)
(declare-const b5~44@ Int)
(declare-const c5~46@ Int)
(declare-const d5~48@ Int)
(declare-const a6~50@ Int)
(declare-const b6~52@ Int)
(declare-const c6~54@ Int)
(declare-const d6~56@ Int)
(declare-const a7~58@ Int)
(declare-const b7~60@ Int)
(declare-const c7~62@ Int)
(declare-const d7~64@ Int)
(declare-const a8~66@ Int)
(declare-const b8~68@ Int)
(declare-const c8~70@ Int)
(declare-const d8~72@ Int)
(declare-const a9~74@ Int)
(declare-const b9~76@ Int)
(declare-const c9~78@ Int)
(declare-const d9~80@ Int)
(declare-const a10~82@ Int)
(declare-const b10~84@ Int)
(declare-const c10~86@ Int)
(declare-const d10~88@ Int)
(declare-const a11~90@ Int)
(declare-const b11~92@ Int)
(declare-const c11~94@ Int)
(declare-const d11~96@ Int)
(declare-const a12~98@ Int)
(declare-const b12~100@ Int)
(declare-const c12~102@ Int)
(declare-const d12~104@ Int)
(declare-const a13~106@ Int)
(declare-const b13~108@ Int)
(declare-const c13~110@ Int)
(declare-const d13~112@ Int)
(declare-const a14~114@ Int)
(declare-const b14~116@ Int)
(declare-const c14~118@ Int)
(declare-const d14~120@ Int)
(declare-const a15~122@ Int)
(declare-const b15~124@ Int)
(declare-const c15~126@ Int)
(declare-const d15~128@ Int)
(declare-const a16~130@ Int)
(declare-const b16~132@ Int)
(declare-const c16~134@ Int)
(declare-const d16~136@ Int)
(declare-const a17~138@ Int)
(declare-const b17~140@ Int)
(declare-const c17~142@ Int)
(declare-const d17~144@ Int)
(declare-const a18~146@ Int)
(declare-const b18~148@ Int)
(declare-const c18~150@ Int)
(declare-const d18~152@ Int)
(declare-const a19~154@ Int)
(declare-const b19~156@ Int)
(declare-const c19~158@ Int)
(declare-const d19~160@ Int)
(declare-const a20~162@ Int)
(declare-const b20~164@ Int)
(declare-const c20~166@ Int)
(declare-const d20~168@ Int)
(declare-const a21~170@ Int)
(declare-const b21~172@ Int)
(declare-const c21~174@ Int)
(declare-const d21~176@ Int)
(declare-const a22~178@ Int)
(declare-const b22~180@ Int)
(declare-const c22~182@ Int)
(declare-const d22~184@ Int)
(declare-const a23~186@ Int)
(declare-const b23~188@ Int)
(declare-const c23~190@ Int)
(declare-const d23~192@ Int)
(declare-const a24~194@ Int)
(declare-const b24~196@ Int)
(declare-const c24~198@ Int)
(declare-const d24~200@ Int)
(declare-const a25~202@ Int)
(declare-const b25~204@ Int)
(declare-const c25~206@ Int)
(declare-const d25~208@ Int)
(declare-const a26~210@ Int)
(declare-const b26~212@ Int)
(declare-const c26~214@ Int)
(declare-const d26~216@ Int)
(declare-const a27~218@ Int)
(declare-const b27~220@ Int)
(declare-const c27~222@ Int)
(declare-const d27~224@ Int)
(declare-const a28~226@ Int)
(declare-const b28~228@ Int)
(declare-const c28~230@ Int)
(declare-const d28~232@ Int)
(declare-const a29~234@ Int)
(declare-const b29~236@ Int)
(declare-const c29~238@ Int)
(declare-const d29~240@ Int)
(declare-const tmp%1@ Int)
(declare-const tmp%2@ Int)
(declare-const tmp%3@ Int)
(declare-const tmp%4@ Int)
(declare-const tmp%5@ Int)
(declare-const tmp%6@ Int)
(declare-const tmp%7@ Int)
(declare-const tmp%8@ Int)
(declare-const tmp%9@ Int)
(declare-const tmp%10@ Int)
(declare-const tmp%11@ Int)
(declare-const tmp%12@ Int)
(declare-const tmp%13@ Int)
(declare-const tmp%14@ Int)
(declare-const tmp%15@ Int)
(declare-const tmp%16@ Int)
(declare-const tmp%17@ Int)
(declare-const tmp%18@ Int)
(declare-const tmp%19@ Int)
(declare-const tmp%20@ Int)
(declare-const tmp%21@ Int)
(declare-const tmp%22@ Int)
(declare-const tmp%23@ Int)
(declare-const tmp%24@ Bool)
(declare-const tmp%25@ Int)
(declare-const tmp%26@ Int)
(declare-const tmp%27@ Int)
(declare-const tmp%28@ Int)
(declare-const tmp%29@ Int)
(declare-const tmp%30@ Int)
(declare-const tmp%31@ Int)
(declare-const tmp%32@ Int)
(declare-const tmp%33@ Int)
(declare-const tmp%34@ Int)
(declare-const tmp%35@ Int)
(declare-const tmp%36@ Int)
(declare-const tmp%37@ Int)
(declare-const tmp%38@ Int)
(declare-const temp_0_0~305@ Int)
(declare-const temp_0_1~390@ Int)
(declare-const temp_1_0~493@ Int)
(declare-const temp_1_1~558@ Int)
(declare-const temp_2_0~775@ Int)
(declare-const temp_2_1~840@ Int)
(declare-const temp_3_0~925@ Int)
(declare-const temp_3_1~998@ Int)
(declare-const temp_4_0~1117@ Int)
(declare-const temp_4_1~1190@ Int)
(declare-const temp_5_0~1257@ Int)
(declare-const temp_5_1~1294@ Int)
(declare-const temp_6_0~1445@ Int)
(declare-const temp_6_1~1542@ Int)
(declare-const temp_7_0~1783@ Int)
(declare-const temp_7_1~1848@ Int)
(declare-const temp_8_0~1953@ Int)
(declare-const temp_8_1~2006@ Int)
(declare-const temp_9_0~2103@ Int)
(declare-const temp_9_1~2156@ Int)
(declare-const temp_10_0~2248@ Int)
(declare-const temp_10_1~2325@ Int)
(declare-const temp_11_0~2562@ Int)
(declare-const temp_11_1~2639@ Int)
(declare-const temp_12_0~2750@ Int)
(declare-const temp_12_1~2827@ Int)
(declare-const temp_13_0~2928@ Int)
(declare-const temp_13_1~3001@ Int)
(assert fuel_defaults)
(set-info :comment ";; assertion failed")
(declare-const %%location_label%%0 Bool)
(set-info :comment ";; assertion failed")
(declare-const %%location_label%%1 Bool)
(set-info :comment ";; assertion failed")
(declare-const %%location_label%%2 Bool)
(set-info :comment ";; assertion failed")
(declare-const %%location_label%%3 Bool)
(set-info :comment ";; assertion failed")
(declare-const %%location_label%%4 Bool)
(set-info :comment ";; assertion failed")
(declare-const %%location_label%%5 Bool)
(set-info :comment ";; assertion failed")
(declare-const %%location_label%%6 Bool)
(set-info :comment ";; assertion failed")
(declare-const %%location_label%%7 Bool)
(set-info :comment ";; assertion failed")
(declare-const %%location_label%%8 Bool)
(set-info :comment ";; assertion failed")
(declare-const %%location_label%%9 Bool)
(set-info :comment ";; assertion failed")
(declare-const %%location_label%%10 Bool)
(set-info :comment ";; assertion failed")
(declare-const %%location_label%%11 Bool)
(set-info :comment ";; assertion failed")
(declare-const %%location_label%%12 Bool)
(set-info :comment ";; assertion failed")
(declare-const %%location_label%%13 Bool)
(declare-const %%query%% Bool)
(assert (=> %%query%% (not (=> (= temp_0_0~305@ (Add (Mul (Mul (Sub d0~8@ d0~8@) (Mul 42 d0~8@)) (Mul (Mul a0~2@ d0~8@) (Mul d0~8@ c0~6@))) (Sub (Mul (Mul b0~4@ a0~2@) (Add b0~4@ b0~4@)) d0~8@))) (=> (= temp_0_1~390@ (Add (Mul (Sub (Mul d0~8@ (Mul 42 d0~8@)) (Mul d0~8@ (Mul 42 d0~8@))) (Mul (Mul a0~2@ d0~8@) (Mul d0~8@ c0~6@))) (Sub (Mul (Mul b0~4@ a0~2@) (Add b0~4@ b0~4@)) d0~8@))) (and (=> (= tmp%1@ (Mul 42 d0~8@)) (=> (ens%main!nl_basics.lemma_mul_is_distributive. d0~8@ d0~8@ tmp%1@) (=> %%location_label%%0 (= temp_0_0~305@ temp_0_1~390@)))) (=> (= temp_0_0~305@ temp_0_1~390@) (=> (= temp_1_0~493@ (Mul (Mul (Mul (Mul b1~12@ b1~12@) (Mul c1~14@ c1~14@)) (Mul (Mul c1~14@ c1~14@) (Mul b1~12@ a1~10@))) (Mul (Add (Mul c1~14@ c1~14@) (Add b1~12@ b1~12@)) (Add (Mul b1~12@ c1~14@) (Mul d1~16@ c1~14@))))) (=> (= temp_1_1~558@ (Mul (Mul (Mul (Mul b1~12@ b1~12@) (Mul c1~14@ c1~14@)) (Mul (Mul c1~14@ c1~14@) (Mul b1~12@ a1~10@))) (Mul (Add (Mul c1~14@ c1~14@) (Add b1~12@ b1~12@)) (Add (Mul c1~14@ b1~12@) (Mul d1~16@ c1~14@))))) (and (=> (ens%main!nl_basics.lemma_mul_is_commutative. c1~14@ b1~12@) (=> (= tmp%2@ (Mul (Mul (Mul b1~12@ b1~12@) (Mul c1~14@ c1~14@)) (Mul (Mul c1~14@ c1~14@) (Mul b1~12@ a1~10@)))) (=> (= tmp%3@ (Add (Mul c1~14@ c1~14@) (Add b1~12@ b1~12@))) (=> (= tmp%4@ (Add (Mul c1~14@ b1~12@) (Mul d1~16@ c1~14@))) (=> (ens%main!nl_basics.lemma_mul_is_associative. tmp%2@ tmp%3@ tmp%4@) (=> (= tmp%5@ (Mul (Mul (Mul b1~12@ b1~12@) (Mul c1~14@ c1~14@)) (Mul (Mul c1~14@ c1~14@) (Mul b1~12@ a1~10@)))) (=> (= tmp%6@ (Add (Mul c1~14@ c1~14@) (Add b1~12@ b1~12@))) (=> (= tmp%7@ (Add (Mul b1~12@ c1~14@) (Mul d1~16@ c1~14@))) (=> (ens%main!nl_basics.lemma_mul_is_associative. tmp%5@ tmp%6@ tmp%7@) (=> %%location_label%%1 (= temp_1_0~493@ temp_1_1~558@))))))))))) (=> (= temp_1_0~493@ temp_1_1~558@) (=> (= temp_2_0~775@ (Sub (Mul (Mul (Add a2~18@ d2~24@) (Mul b2~20@ c2~22@)) (Mul (Mul a2~18@ b2~20@) (Sub b2~20@ a2~18@))) (Mul (Mul (Mul b2~20@ c2~22@) (Sub a2~18@ d2~24@)) (Add (Mul d2~24@ b2~20@) (Mul d2~24@ d2~24@))))) (=> (= temp_2_1~840@ (Sub (Mul (Mul (Add a2~18@ d2~24@) (Mul c2~22@ b2~20@)) (Mul (Mul a2~18@ b2~20@) (Sub b2~20@ a2~18@))) (Mul (Mul (Mul b2~20@ c2~22@) (Sub a2~18@ d2~24@)) (Add (Mul d2~24@ b2~20@) (Mul d2~24@ d2~24@))))) (and (=> (ens%main!nl_basics.lemma_mul_is_commutative. c2~22@ b2~20@) (=> %%location_label%%2 (= temp_2_0~775@ temp_2_1~840@))) (=> (= temp_2_0~775@ temp_2_1~840@) (=> (= temp_3_0~925@ (Mul (Mul (Add d3~32@ (Mul b3~28@ d3~32@)) (Mul (Mul b3~28@ a3~26@) (Mul c3~30@ d3~32@))) (Mul (Mul d3~32@ (Mul a3~26@ a3~26@)) (Mul (Add d3~32@ c3~30@) (Mul b3~28@ c3~30@))))) (=> (= temp_3_1~998@ (Mul (Add (Mul d3~32@ (Mul (Mul b3~28@ a3~26@) (Mul c3~30@ d3~32@))) (Mul (Mul b3~28@ d3~32@) (Mul (Mul b3~28@ a3~26@) (Mul c3~30@ d3~32@)))) (Mul (Mul d3~32@ (Mul a3~26@ a3~26@)) (Mul (Add d3~32@ c3~30@) (Mul b3~28@ c3~30@))))) (and (=> (= tmp%8@ (Mul b3~28@ d3~32@)) (=> (= tmp%9@ (Mul (Mul b3~28@ a3~26@) (Mul c3~30@ d3~32@))) (=> (ens%main!nl_basics.lemma_mul_is_distributive. d3~32@ tmp%8@ tmp%9@) (=> %%location_label%%3 (= temp_3_0~925@ temp_3_1~998@))))) (=> (= temp_3_0~925@ temp_3_1~998@) (=> (= temp_4_0~1117@ (Sub (Mul (Mul (Mul a4~34@ d4~40@) a4~34@) (Mul (Mul b4~36@ a4~34@) (Mul a4~34@ c4~38@))) (Sub (Mul (Mul c4~38@ d4~40@) (Mul d4~40@ b4~36@)) (Mul (Mul d4~40@ 42) (Mul c4~38@ c4~38@))))) (=> (= temp_4_1~1190@ (Sub (Mul (Mul a4~34@ (Mul d4~40@ a4~34@)) (Mul (Mul b4~36@ a4~34@) (Mul a4~34@ c4~38@))) (Sub (Mul (Mul c4~38@ d4~40@) (Mul d4~40@ b4~36@)) (Mul (Mul d4~40@ 42) (Mul c4~38@ c4~38@))))) (and (=> (ens%main!nl_basics.lemma_mul_is_associative. a4~34@ d4~40@ a4~34@) (=> %%location_label%%4 (= temp_4_0~1117@ temp_4_1~1190@))) (=> (= temp_4_0~1117@ temp_4_1~1190@) (=> (= temp_5_0~1257@ (Mul b5~44@ (Mul (Add (Mul b5~44@ a5~42@) (Mul d5~48@ c5~46@)) (Sub (Mul b5~44@ b5~44@) (Add d5~48@ a5~42@))))) (=> (= temp_5_1~1294@ (Mul (Mul b5~44@ (Add (Mul b5~44@ a5~42@) (Mul d5~48@ c5~46@))) (Sub (Mul b5~44@ b5~44@) (Add d5~48@ a5~42@)))) (and (=> (= tmp%10@ (Add (Mul b5~44@ a5~42@) (Mul d5~48@ c5~46@))) (=> (= tmp%11@ (Sub (Mul b5~44@ b5~44@) (Add d5~48@ a5~42@))) (=> (ens%main!nl_basics.lemma_mul_is_associative. b5~44@ tmp%10@ tmp%11@) (=> %%location_label%%5 (= temp_5_0~1257@ temp_5_1~1294@))))) (=> (= temp_5_0~1257@ temp_5_1~1294@) (=> (= temp_6_0~1445@ (Mul (Mul (Mul (Mul d6~56@ a6~50@) (Mul d6~56@ 31)) (Mul (Mul 32 b6~52@) (Mul b6~52@ 73))) (Mul (Sub c6~54@ (Mul c6~54@ c6~54@)) (Mul (Mul c6~54@ b6~52@) (Mul c6~54@ a6~50@))))) (=> (= temp_6_1~1542@ (Mul (Mul (Mul (Mul d6~56@ a6~50@) (Mul d6~56@ 31)) (Mul (Mul 32 b6~52@) (Mul b6~52@ 73))) (Mul (Sub c6~54@ (Mul c6~54@ c6~54@)) (Mul (Mul c6~54@ a6~50@) (Mul c6~54@ b6~52@))))) (and (=> (= tmp%12@ (Mul c6~54@ a6~50@)) (=> (= tmp%13@ (Mul c6~54@ b6~52@)) (=> (ens%main!nl_basics.lemma_mul_is_commutative. tmp%12@ tmp%13@) (=> (= tmp%14@ (Mul (Mul (Mul d6~56@ a6~50@) (Mul d6~56@ 31)) (Mul (Mul 32 b6~52@) (Mul b6~52@ 73)))) (=> (= tmp%15@ (Sub c6~54@ (Mul c6~54@ c6~54@))) (=> (= tmp%16@ (Mul (Mul c6~54@ a6~50@) (Mul c6~54@ b6~52@))) (=> (ens%main!nl_basics.lemma_mul_is_associative. tmp%14@ tmp%15@ tmp%16@) (=> (= tmp%17@ (Mul (Mul (Mul d6~56@ a6~50@) (Mul d6~56@ 31)) (Mul (Mul 32 b6~52@) (Mul b6~52@ 73)))) (=> (= tmp%18@ (Sub c6~54@ (Mul c6~54@ c6~54@))) (=> (= tmp%19@ (Mul (Mul c6~54@ b6~52@) (Mul c6~54@ a6~50@))) (=> (ens%main!nl_basics.lemma_mul_is_associative. tmp%17@ tmp%18@ tmp%19@) (=> %%location_label%%6 (= temp_6_0~1445@ temp_6_1~1542@))))))))))))) (=> (= temp_6_0~1445@ temp_6_1~1542@) (=> (= temp_7_0~1783@ (Mul (Mul (Mul (Sub c7~62@ c7~62@) (Mul d7~64@ a7~58@)) (Mul (Add d7~64@ d7~64@) (Mul a7~58@ d7~64@))) (Mul (Mul (Add c7~62@ b7~60@) (Mul d7~64@ b7~60@)) (Mul (Mul c7~62@ b7~60@) (Mul d7~64@ d7~64@))))) (=> (= temp_7_1~1848@ (Mul (Mul (Mul (Sub c7~62@ c7~62@) (Mul d7~64@ a7~58@)) (Mul (Add d7~64@ d7~64@) (Mul a7~58@ d7~64@))) (Mul (Mul (Mul c7~62@ b7~60@) (Mul d7~64@ d7~64@)) (Mul (Add c7~62@ b7~60@) (Mul d7~64@ b7~60@))))) (and (=> (= tmp%20@ (Mul (Mul c7~62@ b7~60@) (Mul d7~64@ d7~64@))) (=> (= tmp%21@ (Mul (Add c7~62@ b7~60@) (Mul d7~64@ b7~60@))) (=> (ens%main!nl_basics.lemma_mul_is_commutative. tmp%20@ tmp%21@) (=> %%location_label%%7 (= temp_7_0~1783@ temp_7_1~1848@))))) (=> (= temp_7_0~1783@ temp_7_1~1848@) (=> (= temp_8_0~1953@ (Add (Mul (Mul (Add b8~68@ a8~66@) (Mul c8~70@ d8~72@)) (Sub c8~70@ a8~66@)) (Add (Sub (Add d8~72@ c8~70@) c8~70@) (Mul (Mul a8~66@ d8~72@) (Mul a8~66@ c8~70@))))) (=> (= temp_8_1~2006@ (Add (Mul (Sub c8~70@ a8~66@) (Mul (Add b8~68@ a8~66@) (Mul c8~70@ d8~72@))) (Add (Sub (Add d8~72@ c8~70@) c8~70@) (Mul (Mul a8~66@ d8~72@) (Mul a8~66@ c8~70@))))) (and (=> (= tmp%22@ (Sub c8~70@ a8~66@)) (=> (= tmp%23@ (Mul (Add b8~68@ a8~66@) (Mul c8~70@ d8~72@))) (=> (ens%main!nl_basics.lemma_mul_is_commutative. tmp%22@ tmp%23@) (=> %%location_label%%8 (= temp_8_0~1953@ temp_8_1~2006@))))) (=> (= temp_8_0~1953@ temp_8_1~2006@) (=> (= temp_9_0~2103@ (Add (Mul (Mul d9~80@ (Mul a9~74@ c9~78@)) (Mul (Mul c9~78@ c9~78@) (Mul c9~78@ c9~78@))) (Mul (Mul (Mul b9~76@ b9~76@) c9~78@) (Mul d9~80@ (Mul a9~74@ a9~74@))))) (=> (= temp_9_1~2156@ (Add (Mul (Mul d9~80@ (Mul a9~74@ c9~78@)) (Mul (Mul c9~78@ c9~78@) (Mul c9~78@ c9~78@))) (Mul (Mul (Mul b9~76@ b9~76@) c9~78@) (Mul d9~80@ (Mul a9~74@ a9~74@))))) (=> (= tmp%24@ (= temp_9_0~2103@ temp_9_1~2156@)) (and (=> %%location_label%%9 tmp%24@) (=> tmp%24@ (=> (= temp_10_0~2248@ (Mul (Mul (Mul (Mul c10~86@ a10~82@) (Mul b10~84@ d10~88@)) (Mul (Mul c10~86@ a10~82@) (Mul b10~84@ b10~84@))) (Sub (Mul (Sub a10~82@ b10~84@) (Mul b10~84@ 68)) (Mul (Sub a10~82@ a10~82@) (Mul c10~86@ d10~88@))))) (=> (= temp_10_1~2325@ (Mul (Mul (Mul (Mul a10~82@ c10~86@) (Mul b10~84@ d10~88@)) (Mul (Mul c10~86@ a10~82@) (Mul b10~84@ b10~84@))) (Sub (Mul (Sub a10~82@ b10~84@) (Mul b10~84@ 68)) (Mul (Sub a10~82@ a10~82@) (Mul c10~86@ d10~88@))))) (and (=> (ens%main!nl_basics.lemma_mul_is_commutative. a10~82@ c10~86@) (=> (= tmp%25@ (Mul (Mul a10~82@ c10~86@) (Mul b10~84@ d10~88@))) (=> (= tmp%26@ (Mul (Mul c10~86@ a10~82@) (Mul b10~84@ b10~84@))) (=> (= tmp%27@ (Sub (Mul (Sub a10~82@ b10~84@) (Mul b10~84@ 68)) (Mul (Sub a10~82@ a10~82@) (Mul c10~86@ d10~88@)))) (=> (ens%main!nl_basics.lemma_mul_is_associative. tmp%25@ tmp%26@ tmp%27@) (=> (= tmp%28@ (Mul (Mul c10~86@ a10~82@) (Mul b10~84@ d10~88@))) (=> (= tmp%29@ (Mul (Mul c10~86@ a10~82@) (Mul b10~84@ b10~84@))) (=> (= tmp%30@ (Sub (Mul (Sub a10~82@ b10~84@) (Mul b10~84@ 68)) (Mul (Sub a10~82@ a10~82@) (Mul c10~86@ d10~88@)))) (=> (ens%main!nl_basics.lemma_mul_is_associative. tmp%28@ tmp%29@ tmp%30@) (=> %%location_label%%10 (= temp_10_0~2248@ temp_10_1~2325@))))))))))) (=> (= temp_10_0~2248@ temp_10_1~2325@) (=> (= temp_11_0~2562@ (Add (Sub (Mul (Mul d11~96@ a11~90@) (Mul b11~92@ b11~92@)) (Mul (Mul d11~96@ 0) (Mul a11~90@ d11~96@))) (Sub (Mul (Mul c11~94@ d11~96@) (Mul a11~90@ a11~90@)) (Mul (Mul b11~92@ a11~90@) (Mul b11~92@ a11~90@))))) (=> (= temp_11_1~2639@ (Add (Sub (Mul d11~96@ (Mul a11~90@ (Mul b11~92@ b11~92@))) (Mul (Mul d11~96@ 0) (Mul a11~90@ d11~96@))) (Sub (Mul (Mul c11~94@ d11~96@) (Mul a11~90@ a11~90@)) (Mul (Mul b11~92@ a11~90@) (Mul b11~92@ a11~90@))))) (and (=> (= tmp%31@ (Mul b11~92@ b11~92@)) (=> (ens%main!nl_basics.lemma_mul_is_associative. d11~96@ a11~90@ tmp%31@) (=> %%location_label%%11 (= temp_11_0~2562@ temp_11_1~2639@)))) (=> (= temp_11_0~2562@ temp_11_1~2639@) (=> (= temp_12_0~2750@ (Mul (Mul (Mul (Mul b12~100@ 66) (Mul a12~98@ a12~98@)) (Mul (Mul d12~104@ a12~98@) (Sub d12~104@ a12~98@))) (Mul (Mul (Mul b12~100@ a12~98@) (Mul a12~98@ c12~102@)) (Mul (Sub a12~98@ a12~98@) (Sub d12~104@ c12~102@))))) (=> (= temp_12_1~2827@ (Mul (Mul (Mul (Mul b12~100@ 66) (Mul a12~98@ a12~98@)) (Mul (Mul d12~104@ a12~98@) (Sub d12~104@ a12~98@))) (Mul (Mul (Mul b12~100@ a12~98@) (Mul c12~102@ a12~98@)) (Mul (Sub a12~98@ a12~98@) (Sub d12~104@ c12~102@))))) (and (=> (ens%main!nl_basics.lemma_mul_is_commutative. c12~102@ a12~98@) (=> %%location_label%%12 (= temp_12_0~2750@ temp_12_1~2827@))) (=> (= temp_12_0~2750@ temp_12_1~2827@) (=> (= temp_13_0~2928@ (Mul (Mul (Mul (Mul d13~112@ 86) b13~108@) (Mul (Mul c13~110@ c13~110@) (Mul a13~106@ c13~110@))) (Mul (Mul (Mul d13~112@ d13~112@) (Mul b13~108@ d13~112@)) (Mul (Mul d13~112@ b13~108@) (Mul d13~112@ b13~108@))))) (=> (= temp_13_1~3001@ (Mul (Mul (Mul (Mul d13~112@ 86) b13~108@) (Mul (Mul c13~110@ c13~110@) (Mul a13~106@ c13~110@))) (Mul (Mul (Mul d13~112@ d13~112@) (Mul b13~108@ d13~112@)) (Mul (Mul (Mul d13~112@ b13~108@) d13~112@) b13~108@)))) (=> (= tmp%32@ (Mul (Mul (Mul d13~112@ 86) b13~108@) (Mul (Mul c13~110@ c13~110@) (Mul a13~106@ c13~110@)))) (=> (= tmp%33@ (Mul (Mul d13~112@ d13~112@) (Mul b13~108@ d13~112@))) (=> (= tmp%34@ (Mul (Mul (Mul d13~112@ b13~108@) d13~112@) b13~108@)) (=> (ens%main!nl_basics.lemma_mul_is_associative. tmp%32@ tmp%33@ tmp%34@) (=> (= tmp%35@ (Mul d13~112@ b13~108@)) (=> (ens%main!nl_basics.lemma_mul_is_associative. tmp%35@ d13~112@ b13~108@) (=> (= tmp%36@ (Mul (Mul (Mul d13~112@ 86) b13~108@) (Mul (Mul c13~110@ c13~110@) (Mul a13~106@ c13~110@)))) (=> (= tmp%37@ (Mul (Mul d13~112@ d13~112@) (Mul b13~108@ d13~112@))) (=> (= tmp%38@ (Mul (Mul d13~112@ b13~108@) (Mul d13~112@ b13~108@))) (=> (ens%main!nl_basics.lemma_mul_is_associative. tmp%36@ tmp%37@ tmp%38@) (=> %%location_label%%13 (= temp_13_0~2928@ temp_13_1~3001@))))))))))))))))))))))))))))))))))))))))))))))))))))))))))))))))))))))
(assert %%query%%)
(check-sat)
